workspace_BA/ba-solver/src/main/resources/input_graphs/reference_set_c2/bara_alb_n_100_m_2_3.gr
p td 100 196
0 2
0 3
0 83
1 2
1 15
1 16
1 20
1 21
1 33
1 39
1 46
1 67
1 76
1 85
1 86
2 3
2 4
2 6
2 8
2 9
2 10
2 11
2 13
2 18
2 24
2 26
2 30
2 35
2 36
2 38
2 46
2 47
2 62
2 75
2 76
2 80
2 87
2 88
2 91
3 4
3 5
3 7
3 8
3 9
3 12
3 15
3 16
3 17
3 18
3 19
3 20
3 22
3 28
3 32
3 37
3 38
3 39
3 50
3 56
3 58
3 60
3 63
3 66
3 81
3 83
3 90
3 93
3 94
3 99
4 5
4 6
4 26
4 31
5 17
5 52
5 64
5 78
6 7
8 11
8 13
8 24
8 29
8 31
8 47
8 51
8 54
8 56
8 77
8 82
9 10
9 12
9 19
9 23
9 29
9 44
9 58
9 59
9 68
9 75
9 81
9 96
10 27
10 44
10 73
11 14
11 28
11 40
11 60
11 61
11 66
11 72
12 21
12 25
12 30
12 45
12 54
12 57
12 64
12 67
12 98
13 14
13 78
13 92
14 88
15 22
15 34
16 37
16 41
16 43
16 95
17 25
17 32
17 35
17 45
17 50
17 57
19 23
19 36
19 59
20 61
21 33
21 48
21 55
21 73
21 74
22 27
22 51
23 69
25 49
25 70
26 34
26 40
26 42
27 53
28 63
29 85
32 42
32 49
32 53
32 79
33 43
35 41
36 65
36 70
37 48
37 71
37 97
40 79
41 69
47 94
49 72
50 52
51 84
52 65
52 90
54 55
54 62
54 71
54 97
55 95
55 99
61 74
61 87
61 91
61 96
63 80
65 68
72 86
73 77
74 84
76 92
78 89
80 82
86 89
92 93
96 98
