matlab_plots/results/reference_set/bara_alb_n_100_m_2_3.res
file: bara_alb_n_100_m_2_3.gr
total_nodes: 100
c_par: 2
dens: 2.0
lowest_k: 35
redu_time: 0.000
redu_nodes: 100
redu_edges: 196
heur_time: 0.000
heur_nodes: 99
heur_edges: 196
heur_k_used: 0
kernel_times: 0.000;0.002;0.000;0.000;0.000;0.000;0.000;0.000;0.000;
kernel_nodes: 100;100;100;100;100;100;100;100;100;
kernel_edges: 196;196;196;196;196;196;196;196;196;
hs_st_times: 0.000;0.001;0.000;0.015;0.047;0.172;1.266;12.435;
pipe_2_sum: 13.938
pipe_2_res: false
pipe_2_timeout: true
